4650582
62,59,58,71,69,70,73,72,64,63,65,66,67,68,74,75,76,77,78,79,80,81,82,90,91,89,86,83,84,85,87,88,94,92,93,97,96,95,50,48,47,49,46,106,107,108,110,109,111,99,112,100,98,156,102,159,158,157,162,166,161,160,163,169,164,165,172,174,173,175,176,177,189,187,188,190,192,191,198,193,194,182,181,180,178,179,183,195,196,202,201,200,199,197,151,150,149,148,152,153,155,154,146,147,25,23,24,22,29,27,28,37,36,40,118,38,39,123,120,124,131,130,129,128,127,137,142,138,132,139,143,144,145,140,141,185,184,186,136,171,135,170,134,133,126,125,167,168,117,116,115,114,101,113,122,121,119,104,105,103,41,45,42,44,43,53,56,34,35,33,26,20,21,19,11,18,17,10,9,7,6,8,4,5,2,1,3,16,14,13,12,15,32,31,30,51,52,54,55,57,60,61,62
